
Cover cuts applied:  5
Mixed integer rounding cuts applied:  4
Zero-half cuts applied:  11
Lift and project cuts applied:  1
Gomory fractional cuts applied:  2

Root node processing (before b&c):
  Real time             =    0.35 sec. (187.17 ticks)
Parallel b&c, 4 threads:
  Real time             =    0.00 sec. (0.00 ticks)
  Sync time (average)   =    0.00 sec.
  Wait time (average)   =    0.00 sec.
                          ------------
Total (root+branch&cut) =    0.35 sec. (187.17 ticks)
Version identifier: 12.10.0.0 | 2019-11-26 | 843d4de
CPXPARAM_MIP_Interval                            10
CPXPARAM_MIP_Tolerances_AbsMIPGap                0.98999999999999999
Tried aggregator 2 times.
MIP Presolve eliminated 12576 rows and 12606 columns.
MIP Presolve modified 1 coefficients.
Aggregator did 64 substitutions.
Reduced MIP has 2289 rows, 1754 columns, and 7032 nonzeros.
Reduced MIP has 1754 binaries, 0 generals, 0 SOSs, and 0 indicators.
Presolve time = 0.03 sec. (19.45 ticks)
Probing fixed 26 vars, tightened 0 bounds.
Probing changed sense of 56 constraints.
Probing time = 0.01 sec. (8.34 ticks)
Tried aggregator 2 times.
MIP Presolve eliminated 292 rows and 218 columns.
Aggregator did 44 substitutions.
Reduced MIP has 1953 rows, 1492 columns, and 5979 nonzeros.
Reduced MIP has 1492 binaries, 0 generals, 0 SOSs, and 0 indicators.
Presolve time = 0.01 sec. (7.73 ticks)
Probing time = 0.00 sec. (3.85 ticks)
Tried aggregator 2 times.
Detecting symmetries...
MIP Presolve eliminated 91 rows and 73 columns.
Aggregator did 1 substitutions.
Reduced MIP has 1861 rows, 1418 columns, and 5686 nonzeros.
Reduced MIP has 1418 binaries, 0 generals, 0 SOSs, and 0 indicators.
Presolve time = 0.01 sec. (8.31 ticks)
Probing time = 0.00 sec. (2.51 ticks)
Clique table members: 1399.
MIP emphasis: balance optimality and feasibility.
MIP search method: dynamic search.
Parallel mode: deterministic, using up to 4 threads.
Root relaxation solution time = 0.01 sec. (13.40 ticks)

        Nodes                                         Cuts/
   Node  Left     Objective  IInf  Best Integer    Best Bound    ItCnt     Gap

      0     0       15.3333     2                     15.3333      396         
*     0+    0                           14.0000       15.3333             9.52%
      0     0       15.3333     2       14.0000       Cuts: 4      602    9.52%
      0     0        cutoff             14.0000                    604     --- 
Elapsed time = 0.16 sec. (147.83 ticks, tree = 0.01 MB, solutions = 1)
the number of Nodes = 0
